% demand
num_movements = 26;
loading_factor = [1600, 1800, 1900, 1250, 1650, 1700, 1200, 1500, 1050, 1450, 800, 1350, 850, 1700, 1000, 1350, 1300, 1400, 1850, 1450, 2000, 1000, 950, 1400, 1600, 1900];
pickup_time = [0, 0, 0, 0, 1, 1, 2, 2, 3, 3, 4, 4, 4, 5, 5, 5, 7, 8, 8, 8, 8, 9, 9, 11, 11, 11];
delivery_time = [1, 1, 1, 1, 4, 2, 4, 8, 5, 7, 5, 5, 5, 8, 8, 7, 8, 10, 9, 12, 10, 10, 11, 12, 12, 12];

% transporter definition
total_capacity = 7000;
num_decks = 3;
capacity = [3000, 1000, 3000];

% ways out of decks
num_ways_out = 1;
paths_out = array3d(decks, ways_out, decks, [
% ways out of deck d1
2, 3, 0, 

% ways out of deck d2
3, 0, 0, 

% ways out of deck d3
0, 0, 0,	

]);

